objective value:                                   -6
t_n_1                                               1 	(obj:-1)
t_n_204                                             1 	(obj:-1)
t_n_302                                             1 	(obj:-1)
t_n_555                                             1 	(obj:-1)
t_n_625                                             1 	(obj:-1)
t_n_700                                             1 	(obj:-1)
